20
85
4
42
55
97
52
0 3
0 5
0 6
0 7
0 9
0 13
0 16
0 19
1 2
1 4
1 8
1 9
1 11
1 13
1 15
1 16
2 4
2 13
2 14
2 16
3 6
3 9
3 11
3 16
3 17
3 18
4 5
4 6
4 8
4 9
4 11
4 15
4 16
4 18
5 8
5 9
5 14
5 15
5 16
5 17
6 7
6 8
6 9
6 11
6 19
7 9
7 10
7 11
7 12
7 13
7 14
7 15
7 16
7 17
7 18
8 9
8 11
8 14
8 15
8 17
8 18
9 10
9 15
9 18
10 11
10 12
10 16
10 17
10 19
11 13
11 15
11 16
11 18
12 14
12 16
12 18
13 14
13 15
13 18
13 19
14 17
15 16
16 17
17 19
18 19
15 7 6 11 10
17 19 2 16 5
12 9 8 13 3
1 0 14 4 18
